webassembly/ejemplos_dzn/15/folder15_json_73.dzn
TERM = { '.', 's(5)', 'in_1', 'in_6', 'in_9', 'in_0', 's(4)', 'in_3', 's(1)', 's(7)', 's(2)', 'in_2', 'in_8', 's(6)', 's(8)', 's(0)', 's(3)', 'local_0', 'local_1', 'in_4', 'in_7', 'in_5'};
null = '.';
s = 15;
n = 15;
ndeps = 12;
max_registers_sz = 5;
NR = 2;
registers = [|'local_0', 's(5)', |'local_1', 'in_3'|];
dependencies = [|'i32.load_1', 'i32.store8_3', |'i32.store8_3', 'i32.store16_5', |'i32.store16_5', 'i32.load_6', |'i32.store_7', 'call[function_index(0)]_8', |'call[function_index(0)]_8', 'i32.load16_s_11', |'call[function_index(0)]_8', 'i32.load8_u_12', |'call[function_index(0)]_8', 'i32.load_9', |'i32.load_2', 'i32.store8_3', |'i32.load_6', 'i32.store_7', |'i32.load_9', 'i32.store_14', |'i32.load16_s_11', 'i32.store_14', |'i32.load8_u_12', 'i32.store_14'|];
GET_ENUM = { GET1, GET2, GET3, GET4, GET5, GET6, GET7};
SET_ENUM = { SET1, SET2, SET3, SET4, SET5, SET6, SET7};
TEE_ENUM = { TEE1, TEE2, TEE3, TEE4, TEE5, TEE6, TEE7};
N = 12;
OP = { 'call[function_index(0)]_8', 'i32.load_1', 'i32.load_2', 'i32.store8_3', 'i32.store16_5', 'i32.load_6', 'i32.store_7', 'i32.load_9', 'i32.load16_s_11', 'i32.load8_u_12', 'i32.const_0', 'i32.store_14' };
in_ops = [3, 1, 1, 2, 2, 1, 2, 1, 1, 1, 0, 2 ];
out_ops = [2, 1, 1, 0, 0, 1, 0, 1, 1, 1, 1, 0 ];
in1 = ['in_7', 'in_1', 's(0)', 's(1)', 'in_3', 'in_5', 's(2)', 's(4)', 's(5)', 's(6)', '.', 's(8)' ];
in2 = ['in_8', '.', '.', 'in_2', 'in_4', '.', 'in_6', '.', '.', '.', '.', 's(7)' ];
in3 = ['in_9', '.', '.', '.', '.', '.', '.', '.', '.', '.', '.', '.' ];
out1 = ['s(4)', 's(0)', 's(1)', '.', '.', 's(2)', '.', 's(5)', 's(6)', 's(7)', 's(8)', '.' ];
out2 = ['s(3)', '.', '.', '.', '.', '.', '.', '.', '.', '.', '.', '.' ];
out3 = ['.', '.', '.', '.', '.', '.', '.', '.', '.', '.', '.', '.' ];
comm = [false, false, false, false, false, false, false, false, false, false, false, false ];
gas = [1, 1, 1, 1, 1, 1, 1, 1, 1, 1, 1, 1 ];
sz = [1, 1, 1, 1, 1, 1, 1, 1, 1, 1, 1, 1 ];
stor = [true, false, false, true, true, false, true, false, false, false, false, true ];
lb = [ 1, 1, 1, 1, 1, 1, 1, 1, 1, 1, 1, 1 ];
ub = [ 15, 15, 15, 15, 15, 15, 15, 15, 15, 15, 15, 15 ];
startstack = [ 'in_0', 'in_1', 'in_2', 'in_3', 'in_4', 'in_5', 'in_6', 'in_7', 'in_8', 'in_9', null, null, null, null, null ];
endstack = [ 's(3)', null, null, null, null, null, null, null, null, null, null, null, null, null, null ];
