webassembly/ejemplos_results/15/folder15_json_73.txt
value = 15;
fgas = [1, 1, 1, 1, 1, 1, 1, 1, 1, 1, 1, 1, 1, 1, 1];
fsize = [1, 1, 1, 1, 1, 1, 1, 1, 1, 1, 1, 1, 1, 1, 1];
states = 
[|   in_0,   in_1,   in_2, in_3, in_4, in_5, in_6, in_7, in_8, in_9, '.', '.', '.', '.',     '.'
 |   in_1,   in_2,   in_3, in_4, in_5, in_6, in_7, in_8, in_9,  '.', '.', '.', '.', '.',     '.'
 | 's(0)',   in_2,   in_3, in_4, in_5, in_6, in_7, in_8, in_9,  '.', '.', '.', '.', '.',    in_5
 | 's(1)',   in_2,   in_3, in_4, in_5, in_6, in_7, in_8, in_9,  '.', '.', '.', '.', '.',    in_5
 |   in_3,   in_4,   in_5, in_6, in_7, in_8, in_9,  '.',  '.',  '.', '.', '.', '.', '.',     '.'
 |   in_3,   in_4,   in_5, in_6, in_7, in_8, in_9,  '.',  '.',  '.', '.', '.', '.', '.',     '.'
 |   in_5,   in_6,   in_7, in_8, in_9,  '.',  '.',  '.',  '.',  '.', '.', '.', '.', '.', local_0
 | 's(2)',   in_6,   in_7, in_8, in_9,  '.',  '.',  '.',  '.',  '.', '.', '.', '.', '.',  's(3)'
 |   in_7,   in_8,   in_9,  '.',  '.',  '.',  '.',  '.',  '.',  '.', '.', '.', '.', '.',    in_5
 | 's(4)', 's(3)',    '.',  '.',  '.',  '.',  '.',  '.',  '.',  '.', '.', '.', '.', '.',    in_5
 | 's(5)', 's(3)',    '.',  '.',  '.',  '.',  '.',  '.',  '.',  '.', '.', '.', '.', '.',     '.'
 | 's(5)', 's(3)',    '.',  '.',  '.',  '.',  '.',  '.',  '.',  '.', '.', '.', '.', '.',     '.'
 | 's(6)', 's(3)',    '.',  '.',  '.',  '.',  '.',  '.',  '.',  '.', '.', '.', '.', '.',    in_5
 | 's(7)', 's(3)',    '.',  '.',  '.',  '.',  '.',  '.',  '.',  '.', '.', '.', '.', '.',    in_5
 | 's(8)', 's(7)', 's(3)',  '.',  '.',  '.',  '.',  '.',  '.',  '.', '.', '.', '.', '.',     '.'
 | 's(3)',    '.',    '.',  '.',  '.',  '.',  '.',  '.',  '.',  '.', '.', '.', '.', '.',     '.'
 |];
register_states = 
[| local_0, local_1, '.', '.', '.', '.', '.'
 | local_0,    in_0, '.', '.', '.', '.', '.'
 | local_0,    in_0, '.', '.', '.', '.', '.'
 | local_0,    in_0, '.', '.', '.', '.', '.'
 | local_0,    in_0, '.', '.', '.', '.', '.'
 | local_0,    in_3, '.', '.', '.', '.', '.'
 | local_0,    in_3, '.', '.', '.', '.', '.'
 | local_0,    in_3, '.', '.', '.', '.', '.'
 | local_0,    in_3, '.', '.', '.', '.', '.'
 | local_0,    in_3, '.', '.', '.', '.', '.'
 | local_0,    in_3, '.', '.', '.', '.', '.'
 |  's(5)',    in_3, '.', '.', '.', '.', '.'
 |  's(5)',    in_3, '.', '.', '.', '.', '.'
 |  's(5)',    in_3, '.', '.', '.', '.', '.'
 |  's(5)',    in_3, '.', '.', '.', '.', '.'
 |  's(5)',    in_3, '.', '.', '.', '.', '.'
 |];
program = [S(SET2), O('i32.load_1'), O('i32.load_2'), O('i32.store8_3'), TEE(TEE2), O('i32.store16_5'), O('i32.load_6'), O('i32.store_7'), O('call[function_index(0)]_8'), O('i32.load_9'), TEE(TEE1), O('i32.load16_s_11'), O('i32.load8_u_12'), O('i32.const_0'), O('i32.store_14')];
% time elapsed: 0.64 s
----------
==========
% time elapsed: 0.73 s
% [value > 14]
